(set-logic QF_LRA)
(declare-fun X0 () Real )
(declare-fun Y0 () Real )
(declare-fun X1 () Real )
(declare-fun Y1 () Real )
(declare-fun X2 () Real )
(declare-fun Y2 () Real )
(declare-fun X3 () Real )
(declare-fun Y3 () Real )
(declare-fun X4 () Real )
(declare-fun Y4 () Real )
(declare-fun X5 () Real )
(declare-fun Y5 () Real )
(declare-fun X6 () Real )
(declare-fun Y6 () Real )
(declare-fun X7 () Real )
(declare-fun Y7 () Real )
(declare-fun X8 () Real )
(declare-fun Y8 () Real )
(declare-fun X9 () Real )
(declare-fun Y9 () Real )
(declare-fun X10 () Real )
(declare-fun Y10 () Real )
(declare-fun X11 () Real )
(declare-fun Y11 () Real )
(declare-fun X12 () Real )
(declare-fun Y12 () Real )
(declare-fun X13 () Real )
(declare-fun Y13 () Real )
(declare-fun X14 () Real )
(declare-fun Y14 () Real )
(declare-fun X15 () Real )
(declare-fun Y15 () Real )
(declare-fun X16 () Real )
(declare-fun Y16 () Real )
(declare-fun X17 () Real )
(declare-fun Y17 () Real )
(declare-fun Z () Real )
(declare-fun k () Real )
(assert (let
(( $goal (>= Z k) ))
(let
((
$phi ( and 
( or ( <= ( + X0 90 ) X1 )  ( <= ( + X1 34 ) X0 )  ( <= ( + Y0 72 ) Y1 )  ( <= ( + Y1 52 ) Y0 )  )
( or ( <= ( + X0 90 ) X2 )  ( <= ( + X2 7 ) X0 )  ( <= ( + Y0 72 ) Y2 )  ( <= ( + Y2 77 ) Y0 )  )
( or ( <= ( + X0 90 ) X3 )  ( <= ( + X3 38 ) X0 )  ( <= ( + Y0 72 ) Y3 )  ( <= ( + Y3 29 ) Y0 )  )
( or ( <= ( + X0 90 ) X4 )  ( <= ( + X4 20 ) X0 )  ( <= ( + Y0 72 ) Y4 )  ( <= ( + Y4 16 ) Y0 )  )
( or ( <= ( + X0 90 ) X5 )  ( <= ( + X5 77 ) X0 )  ( <= ( + Y0 72 ) Y5 )  ( <= ( + Y5 98 ) Y0 )  )
( or ( <= ( + X0 90 ) X6 )  ( <= ( + X6 52 ) X0 )  ( <= ( + Y0 72 ) Y6 )  ( <= ( + Y6 10 ) Y0 )  )
( or ( <= ( + X0 90 ) X7 )  ( <= ( + X7 52 ) X0 )  ( <= ( + Y0 72 ) Y7 )  ( <= ( + Y7 26 ) Y0 )  )
( or ( <= ( + X0 90 ) X8 )  ( <= ( + X8 39 ) X0 )  ( <= ( + Y0 72 ) Y8 )  ( <= ( + Y8 8 ) Y0 )  )
( or ( <= ( + X0 90 ) X9 )  ( <= ( + X9 75 ) X0 )  ( <= ( + Y0 72 ) Y9 )  ( <= ( + Y9 62 ) Y0 )  )
( or ( <= ( + X0 90 ) X10 )  ( <= ( + X10 87 ) X0 )  ( <= ( + Y0 72 ) Y10 )  ( <= ( + Y10 81 ) Y0 )  )
( or ( <= ( + X0 90 ) X11 )  ( <= ( + X11 57 ) X0 )  ( <= ( + Y0 72 ) Y11 )  ( <= ( + Y11 45 ) Y0 )  )
( or ( <= ( + X0 90 ) X12 )  ( <= ( + X12 36 ) X0 )  ( <= ( + Y0 72 ) Y12 )  ( <= ( + Y12 44 ) Y0 )  )
( or ( <= ( + X0 90 ) X13 )  ( <= ( + X13 96 ) X0 )  ( <= ( + Y0 72 ) Y13 )  ( <= ( + Y13 70 ) Y0 )  )
( or ( <= ( + X0 90 ) X14 )  ( <= ( + X14 57 ) X0 )  ( <= ( + Y0 72 ) Y14 )  ( <= ( + Y14 30 ) Y0 )  )
( or ( <= ( + X0 90 ) X15 )  ( <= ( + X15 59 ) X0 )  ( <= ( + Y0 72 ) Y15 )  ( <= ( + Y15 3 ) Y0 )  )
( or ( <= ( + X0 90 ) X16 )  ( <= ( + X16 93 ) X0 )  ( <= ( + Y0 72 ) Y16 )  ( <= ( + Y16 7 ) Y0 )  )
( or ( <= ( + X0 90 ) X17 )  ( <= ( + X17 7 ) X0 )  ( <= ( + Y0 72 ) Y17 )  ( <= ( + Y17 50 ) Y0 )  )
( or ( <= ( + X1 34 ) X2 )  ( <= ( + X2 7 ) X1 )  ( <= ( + Y1 52 ) Y2 )  ( <= ( + Y2 77 ) Y1 )  )
( or ( <= ( + X1 34 ) X3 )  ( <= ( + X3 38 ) X1 )  ( <= ( + Y1 52 ) Y3 )  ( <= ( + Y3 29 ) Y1 )  )
( or ( <= ( + X1 34 ) X4 )  ( <= ( + X4 20 ) X1 )  ( <= ( + Y1 52 ) Y4 )  ( <= ( + Y4 16 ) Y1 )  )
( or ( <= ( + X1 34 ) X5 )  ( <= ( + X5 77 ) X1 )  ( <= ( + Y1 52 ) Y5 )  ( <= ( + Y5 98 ) Y1 )  )
( or ( <= ( + X1 34 ) X6 )  ( <= ( + X6 52 ) X1 )  ( <= ( + Y1 52 ) Y6 )  ( <= ( + Y6 10 ) Y1 )  )
( or ( <= ( + X1 34 ) X7 )  ( <= ( + X7 52 ) X1 )  ( <= ( + Y1 52 ) Y7 )  ( <= ( + Y7 26 ) Y1 )  )
( or ( <= ( + X1 34 ) X8 )  ( <= ( + X8 39 ) X1 )  ( <= ( + Y1 52 ) Y8 )  ( <= ( + Y8 8 ) Y1 )  )
( or ( <= ( + X1 34 ) X9 )  ( <= ( + X9 75 ) X1 )  ( <= ( + Y1 52 ) Y9 )  ( <= ( + Y9 62 ) Y1 )  )
( or ( <= ( + X1 34 ) X10 )  ( <= ( + X10 87 ) X1 )  ( <= ( + Y1 52 ) Y10 )  ( <= ( + Y10 81 ) Y1 )  )
( or ( <= ( + X1 34 ) X11 )  ( <= ( + X11 57 ) X1 )  ( <= ( + Y1 52 ) Y11 )  ( <= ( + Y11 45 ) Y1 )  )
( or ( <= ( + X1 34 ) X12 )  ( <= ( + X12 36 ) X1 )  ( <= ( + Y1 52 ) Y12 )  ( <= ( + Y12 44 ) Y1 )  )
( or ( <= ( + X1 34 ) X13 )  ( <= ( + X13 96 ) X1 )  ( <= ( + Y1 52 ) Y13 )  ( <= ( + Y13 70 ) Y1 )  )
( or ( <= ( + X1 34 ) X14 )  ( <= ( + X14 57 ) X1 )  ( <= ( + Y1 52 ) Y14 )  ( <= ( + Y14 30 ) Y1 )  )
( or ( <= ( + X1 34 ) X15 )  ( <= ( + X15 59 ) X1 )  ( <= ( + Y1 52 ) Y15 )  ( <= ( + Y15 3 ) Y1 )  )
( or ( <= ( + X1 34 ) X16 )  ( <= ( + X16 93 ) X1 )  ( <= ( + Y1 52 ) Y16 )  ( <= ( + Y16 7 ) Y1 )  )
( or ( <= ( + X1 34 ) X17 )  ( <= ( + X17 7 ) X1 )  ( <= ( + Y1 52 ) Y17 )  ( <= ( + Y17 50 ) Y1 )  )
( or ( <= ( + X2 7 ) X3 )  ( <= ( + X3 38 ) X2 )  ( <= ( + Y2 77 ) Y3 )  ( <= ( + Y3 29 ) Y2 )  )
( or ( <= ( + X2 7 ) X4 )  ( <= ( + X4 20 ) X2 )  ( <= ( + Y2 77 ) Y4 )  ( <= ( + Y4 16 ) Y2 )  )
( or ( <= ( + X2 7 ) X5 )  ( <= ( + X5 77 ) X2 )  ( <= ( + Y2 77 ) Y5 )  ( <= ( + Y5 98 ) Y2 )  )
( or ( <= ( + X2 7 ) X6 )  ( <= ( + X6 52 ) X2 )  ( <= ( + Y2 77 ) Y6 )  ( <= ( + Y6 10 ) Y2 )  )
( or ( <= ( + X2 7 ) X7 )  ( <= ( + X7 52 ) X2 )  ( <= ( + Y2 77 ) Y7 )  ( <= ( + Y7 26 ) Y2 )  )
( or ( <= ( + X2 7 ) X8 )  ( <= ( + X8 39 ) X2 )  ( <= ( + Y2 77 ) Y8 )  ( <= ( + Y8 8 ) Y2 )  )
( or ( <= ( + X2 7 ) X9 )  ( <= ( + X9 75 ) X2 )  ( <= ( + Y2 77 ) Y9 )  ( <= ( + Y9 62 ) Y2 )  )
( or ( <= ( + X2 7 ) X10 )  ( <= ( + X10 87 ) X2 )  ( <= ( + Y2 77 ) Y10 )  ( <= ( + Y10 81 ) Y2 )  )
( or ( <= ( + X2 7 ) X11 )  ( <= ( + X11 57 ) X2 )  ( <= ( + Y2 77 ) Y11 )  ( <= ( + Y11 45 ) Y2 )  )
( or ( <= ( + X2 7 ) X12 )  ( <= ( + X12 36 ) X2 )  ( <= ( + Y2 77 ) Y12 )  ( <= ( + Y12 44 ) Y2 )  )
( or ( <= ( + X2 7 ) X13 )  ( <= ( + X13 96 ) X2 )  ( <= ( + Y2 77 ) Y13 )  ( <= ( + Y13 70 ) Y2 )  )
( or ( <= ( + X2 7 ) X14 )  ( <= ( + X14 57 ) X2 )  ( <= ( + Y2 77 ) Y14 )  ( <= ( + Y14 30 ) Y2 )  )
( or ( <= ( + X2 7 ) X15 )  ( <= ( + X15 59 ) X2 )  ( <= ( + Y2 77 ) Y15 )  ( <= ( + Y15 3 ) Y2 )  )
( or ( <= ( + X2 7 ) X16 )  ( <= ( + X16 93 ) X2 )  ( <= ( + Y2 77 ) Y16 )  ( <= ( + Y16 7 ) Y2 )  )
( or ( <= ( + X2 7 ) X17 )  ( <= ( + X17 7 ) X2 )  ( <= ( + Y2 77 ) Y17 )  ( <= ( + Y17 50 ) Y2 )  )
( or ( <= ( + X3 38 ) X4 )  ( <= ( + X4 20 ) X3 )  ( <= ( + Y3 29 ) Y4 )  ( <= ( + Y4 16 ) Y3 )  )
( or ( <= ( + X3 38 ) X5 )  ( <= ( + X5 77 ) X3 )  ( <= ( + Y3 29 ) Y5 )  ( <= ( + Y5 98 ) Y3 )  )
( or ( <= ( + X3 38 ) X6 )  ( <= ( + X6 52 ) X3 )  ( <= ( + Y3 29 ) Y6 )  ( <= ( + Y6 10 ) Y3 )  )
( or ( <= ( + X3 38 ) X7 )  ( <= ( + X7 52 ) X3 )  ( <= ( + Y3 29 ) Y7 )  ( <= ( + Y7 26 ) Y3 )  )
( or ( <= ( + X3 38 ) X8 )  ( <= ( + X8 39 ) X3 )  ( <= ( + Y3 29 ) Y8 )  ( <= ( + Y8 8 ) Y3 )  )
( or ( <= ( + X3 38 ) X9 )  ( <= ( + X9 75 ) X3 )  ( <= ( + Y3 29 ) Y9 )  ( <= ( + Y9 62 ) Y3 )  )
( or ( <= ( + X3 38 ) X10 )  ( <= ( + X10 87 ) X3 )  ( <= ( + Y3 29 ) Y10 )  ( <= ( + Y10 81 ) Y3 )  )
( or ( <= ( + X3 38 ) X11 )  ( <= ( + X11 57 ) X3 )  ( <= ( + Y3 29 ) Y11 )  ( <= ( + Y11 45 ) Y3 )  )
( or ( <= ( + X3 38 ) X12 )  ( <= ( + X12 36 ) X3 )  ( <= ( + Y3 29 ) Y12 )  ( <= ( + Y12 44 ) Y3 )  )
( or ( <= ( + X3 38 ) X13 )  ( <= ( + X13 96 ) X3 )  ( <= ( + Y3 29 ) Y13 )  ( <= ( + Y13 70 ) Y3 )  )
( or ( <= ( + X3 38 ) X14 )  ( <= ( + X14 57 ) X3 )  ( <= ( + Y3 29 ) Y14 )  ( <= ( + Y14 30 ) Y3 )  )
( or ( <= ( + X3 38 ) X15 )  ( <= ( + X15 59 ) X3 )  ( <= ( + Y3 29 ) Y15 )  ( <= ( + Y15 3 ) Y3 )  )
( or ( <= ( + X3 38 ) X16 )  ( <= ( + X16 93 ) X3 )  ( <= ( + Y3 29 ) Y16 )  ( <= ( + Y16 7 ) Y3 )  )
( or ( <= ( + X3 38 ) X17 )  ( <= ( + X17 7 ) X3 )  ( <= ( + Y3 29 ) Y17 )  ( <= ( + Y17 50 ) Y3 )  )
( or ( <= ( + X4 20 ) X5 )  ( <= ( + X5 77 ) X4 )  ( <= ( + Y4 16 ) Y5 )  ( <= ( + Y5 98 ) Y4 )  )
( or ( <= ( + X4 20 ) X6 )  ( <= ( + X6 52 ) X4 )  ( <= ( + Y4 16 ) Y6 )  ( <= ( + Y6 10 ) Y4 )  )
( or ( <= ( + X4 20 ) X7 )  ( <= ( + X7 52 ) X4 )  ( <= ( + Y4 16 ) Y7 )  ( <= ( + Y7 26 ) Y4 )  )
( or ( <= ( + X4 20 ) X8 )  ( <= ( + X8 39 ) X4 )  ( <= ( + Y4 16 ) Y8 )  ( <= ( + Y8 8 ) Y4 )  )
( or ( <= ( + X4 20 ) X9 )  ( <= ( + X9 75 ) X4 )  ( <= ( + Y4 16 ) Y9 )  ( <= ( + Y9 62 ) Y4 )  )
( or ( <= ( + X4 20 ) X10 )  ( <= ( + X10 87 ) X4 )  ( <= ( + Y4 16 ) Y10 )  ( <= ( + Y10 81 ) Y4 )  )
( or ( <= ( + X4 20 ) X11 )  ( <= ( + X11 57 ) X4 )  ( <= ( + Y4 16 ) Y11 )  ( <= ( + Y11 45 ) Y4 )  )
( or ( <= ( + X4 20 ) X12 )  ( <= ( + X12 36 ) X4 )  ( <= ( + Y4 16 ) Y12 )  ( <= ( + Y12 44 ) Y4 )  )
( or ( <= ( + X4 20 ) X13 )  ( <= ( + X13 96 ) X4 )  ( <= ( + Y4 16 ) Y13 )  ( <= ( + Y13 70 ) Y4 )  )
( or ( <= ( + X4 20 ) X14 )  ( <= ( + X14 57 ) X4 )  ( <= ( + Y4 16 ) Y14 )  ( <= ( + Y14 30 ) Y4 )  )
( or ( <= ( + X4 20 ) X15 )  ( <= ( + X15 59 ) X4 )  ( <= ( + Y4 16 ) Y15 )  ( <= ( + Y15 3 ) Y4 )  )
( or ( <= ( + X4 20 ) X16 )  ( <= ( + X16 93 ) X4 )  ( <= ( + Y4 16 ) Y16 )  ( <= ( + Y16 7 ) Y4 )  )
( or ( <= ( + X4 20 ) X17 )  ( <= ( + X17 7 ) X4 )  ( <= ( + Y4 16 ) Y17 )  ( <= ( + Y17 50 ) Y4 )  )
( or ( <= ( + X5 77 ) X6 )  ( <= ( + X6 52 ) X5 )  ( <= ( + Y5 98 ) Y6 )  ( <= ( + Y6 10 ) Y5 )  )
( or ( <= ( + X5 77 ) X7 )  ( <= ( + X7 52 ) X5 )  ( <= ( + Y5 98 ) Y7 )  ( <= ( + Y7 26 ) Y5 )  )
( or ( <= ( + X5 77 ) X8 )  ( <= ( + X8 39 ) X5 )  ( <= ( + Y5 98 ) Y8 )  ( <= ( + Y8 8 ) Y5 )  )
( or ( <= ( + X5 77 ) X9 )  ( <= ( + X9 75 ) X5 )  ( <= ( + Y5 98 ) Y9 )  ( <= ( + Y9 62 ) Y5 )  )
( or ( <= ( + X5 77 ) X10 )  ( <= ( + X10 87 ) X5 )  ( <= ( + Y5 98 ) Y10 )  ( <= ( + Y10 81 ) Y5 )  )
( or ( <= ( + X5 77 ) X11 )  ( <= ( + X11 57 ) X5 )  ( <= ( + Y5 98 ) Y11 )  ( <= ( + Y11 45 ) Y5 )  )
( or ( <= ( + X5 77 ) X12 )  ( <= ( + X12 36 ) X5 )  ( <= ( + Y5 98 ) Y12 )  ( <= ( + Y12 44 ) Y5 )  )
( or ( <= ( + X5 77 ) X13 )  ( <= ( + X13 96 ) X5 )  ( <= ( + Y5 98 ) Y13 )  ( <= ( + Y13 70 ) Y5 )  )
( or ( <= ( + X5 77 ) X14 )  ( <= ( + X14 57 ) X5 )  ( <= ( + Y5 98 ) Y14 )  ( <= ( + Y14 30 ) Y5 )  )
( or ( <= ( + X5 77 ) X15 )  ( <= ( + X15 59 ) X5 )  ( <= ( + Y5 98 ) Y15 )  ( <= ( + Y15 3 ) Y5 )  )
( or ( <= ( + X5 77 ) X16 )  ( <= ( + X16 93 ) X5 )  ( <= ( + Y5 98 ) Y16 )  ( <= ( + Y16 7 ) Y5 )  )
( or ( <= ( + X5 77 ) X17 )  ( <= ( + X17 7 ) X5 )  ( <= ( + Y5 98 ) Y17 )  ( <= ( + Y17 50 ) Y5 )  )
( or ( <= ( + X6 52 ) X7 )  ( <= ( + X7 52 ) X6 )  ( <= ( + Y6 10 ) Y7 )  ( <= ( + Y7 26 ) Y6 )  )
( or ( <= ( + X6 52 ) X8 )  ( <= ( + X8 39 ) X6 )  ( <= ( + Y6 10 ) Y8 )  ( <= ( + Y8 8 ) Y6 )  )
( or ( <= ( + X6 52 ) X9 )  ( <= ( + X9 75 ) X6 )  ( <= ( + Y6 10 ) Y9 )  ( <= ( + Y9 62 ) Y6 )  )
( or ( <= ( + X6 52 ) X10 )  ( <= ( + X10 87 ) X6 )  ( <= ( + Y6 10 ) Y10 )  ( <= ( + Y10 81 ) Y6 )  )
( or ( <= ( + X6 52 ) X11 )  ( <= ( + X11 57 ) X6 )  ( <= ( + Y6 10 ) Y11 )  ( <= ( + Y11 45 ) Y6 )  )
( or ( <= ( + X6 52 ) X12 )  ( <= ( + X12 36 ) X6 )  ( <= ( + Y6 10 ) Y12 )  ( <= ( + Y12 44 ) Y6 )  )
( or ( <= ( + X6 52 ) X13 )  ( <= ( + X13 96 ) X6 )  ( <= ( + Y6 10 ) Y13 )  ( <= ( + Y13 70 ) Y6 )  )
( or ( <= ( + X6 52 ) X14 )  ( <= ( + X14 57 ) X6 )  ( <= ( + Y6 10 ) Y14 )  ( <= ( + Y14 30 ) Y6 )  )
( or ( <= ( + X6 52 ) X15 )  ( <= ( + X15 59 ) X6 )  ( <= ( + Y6 10 ) Y15 )  ( <= ( + Y15 3 ) Y6 )  )
( or ( <= ( + X6 52 ) X16 )  ( <= ( + X16 93 ) X6 )  ( <= ( + Y6 10 ) Y16 )  ( <= ( + Y16 7 ) Y6 )  )
( or ( <= ( + X6 52 ) X17 )  ( <= ( + X17 7 ) X6 )  ( <= ( + Y6 10 ) Y17 )  ( <= ( + Y17 50 ) Y6 )  )
( or ( <= ( + X7 52 ) X8 )  ( <= ( + X8 39 ) X7 )  ( <= ( + Y7 26 ) Y8 )  ( <= ( + Y8 8 ) Y7 )  )
( or ( <= ( + X7 52 ) X9 )  ( <= ( + X9 75 ) X7 )  ( <= ( + Y7 26 ) Y9 )  ( <= ( + Y9 62 ) Y7 )  )
( or ( <= ( + X7 52 ) X10 )  ( <= ( + X10 87 ) X7 )  ( <= ( + Y7 26 ) Y10 )  ( <= ( + Y10 81 ) Y7 )  )
( or ( <= ( + X7 52 ) X11 )  ( <= ( + X11 57 ) X7 )  ( <= ( + Y7 26 ) Y11 )  ( <= ( + Y11 45 ) Y7 )  )
( or ( <= ( + X7 52 ) X12 )  ( <= ( + X12 36 ) X7 )  ( <= ( + Y7 26 ) Y12 )  ( <= ( + Y12 44 ) Y7 )  )
( or ( <= ( + X7 52 ) X13 )  ( <= ( + X13 96 ) X7 )  ( <= ( + Y7 26 ) Y13 )  ( <= ( + Y13 70 ) Y7 )  )
( or ( <= ( + X7 52 ) X14 )  ( <= ( + X14 57 ) X7 )  ( <= ( + Y7 26 ) Y14 )  ( <= ( + Y14 30 ) Y7 )  )
( or ( <= ( + X7 52 ) X15 )  ( <= ( + X15 59 ) X7 )  ( <= ( + Y7 26 ) Y15 )  ( <= ( + Y15 3 ) Y7 )  )
( or ( <= ( + X7 52 ) X16 )  ( <= ( + X16 93 ) X7 )  ( <= ( + Y7 26 ) Y16 )  ( <= ( + Y16 7 ) Y7 )  )
( or ( <= ( + X7 52 ) X17 )  ( <= ( + X17 7 ) X7 )  ( <= ( + Y7 26 ) Y17 )  ( <= ( + Y17 50 ) Y7 )  )
( or ( <= ( + X8 39 ) X9 )  ( <= ( + X9 75 ) X8 )  ( <= ( + Y8 8 ) Y9 )  ( <= ( + Y9 62 ) Y8 )  )
( or ( <= ( + X8 39 ) X10 )  ( <= ( + X10 87 ) X8 )  ( <= ( + Y8 8 ) Y10 )  ( <= ( + Y10 81 ) Y8 )  )
( or ( <= ( + X8 39 ) X11 )  ( <= ( + X11 57 ) X8 )  ( <= ( + Y8 8 ) Y11 )  ( <= ( + Y11 45 ) Y8 )  )
( or ( <= ( + X8 39 ) X12 )  ( <= ( + X12 36 ) X8 )  ( <= ( + Y8 8 ) Y12 )  ( <= ( + Y12 44 ) Y8 )  )
( or ( <= ( + X8 39 ) X13 )  ( <= ( + X13 96 ) X8 )  ( <= ( + Y8 8 ) Y13 )  ( <= ( + Y13 70 ) Y8 )  )
( or ( <= ( + X8 39 ) X14 )  ( <= ( + X14 57 ) X8 )  ( <= ( + Y8 8 ) Y14 )  ( <= ( + Y14 30 ) Y8 )  )
( or ( <= ( + X8 39 ) X15 )  ( <= ( + X15 59 ) X8 )  ( <= ( + Y8 8 ) Y15 )  ( <= ( + Y15 3 ) Y8 )  )
( or ( <= ( + X8 39 ) X16 )  ( <= ( + X16 93 ) X8 )  ( <= ( + Y8 8 ) Y16 )  ( <= ( + Y16 7 ) Y8 )  )
( or ( <= ( + X8 39 ) X17 )  ( <= ( + X17 7 ) X8 )  ( <= ( + Y8 8 ) Y17 )  ( <= ( + Y17 50 ) Y8 )  )
( or ( <= ( + X9 75 ) X10 )  ( <= ( + X10 87 ) X9 )  ( <= ( + Y9 62 ) Y10 )  ( <= ( + Y10 81 ) Y9 )  )
( or ( <= ( + X9 75 ) X11 )  ( <= ( + X11 57 ) X9 )  ( <= ( + Y9 62 ) Y11 )  ( <= ( + Y11 45 ) Y9 )  )
( or ( <= ( + X9 75 ) X12 )  ( <= ( + X12 36 ) X9 )  ( <= ( + Y9 62 ) Y12 )  ( <= ( + Y12 44 ) Y9 )  )
( or ( <= ( + X9 75 ) X13 )  ( <= ( + X13 96 ) X9 )  ( <= ( + Y9 62 ) Y13 )  ( <= ( + Y13 70 ) Y9 )  )
( or ( <= ( + X9 75 ) X14 )  ( <= ( + X14 57 ) X9 )  ( <= ( + Y9 62 ) Y14 )  ( <= ( + Y14 30 ) Y9 )  )
( or ( <= ( + X9 75 ) X15 )  ( <= ( + X15 59 ) X9 )  ( <= ( + Y9 62 ) Y15 )  ( <= ( + Y15 3 ) Y9 )  )
( or ( <= ( + X9 75 ) X16 )  ( <= ( + X16 93 ) X9 )  ( <= ( + Y9 62 ) Y16 )  ( <= ( + Y16 7 ) Y9 )  )
( or ( <= ( + X9 75 ) X17 )  ( <= ( + X17 7 ) X9 )  ( <= ( + Y9 62 ) Y17 )  ( <= ( + Y17 50 ) Y9 )  )
( or ( <= ( + X10 87 ) X11 )  ( <= ( + X11 57 ) X10 )  ( <= ( + Y10 81 ) Y11 )  ( <= ( + Y11 45 ) Y10 )  )
( or ( <= ( + X10 87 ) X12 )  ( <= ( + X12 36 ) X10 )  ( <= ( + Y10 81 ) Y12 )  ( <= ( + Y12 44 ) Y10 )  )
( or ( <= ( + X10 87 ) X13 )  ( <= ( + X13 96 ) X10 )  ( <= ( + Y10 81 ) Y13 )  ( <= ( + Y13 70 ) Y10 )  )
( or ( <= ( + X10 87 ) X14 )  ( <= ( + X14 57 ) X10 )  ( <= ( + Y10 81 ) Y14 )  ( <= ( + Y14 30 ) Y10 )  )
( or ( <= ( + X10 87 ) X15 )  ( <= ( + X15 59 ) X10 )  ( <= ( + Y10 81 ) Y15 )  ( <= ( + Y15 3 ) Y10 )  )
( or ( <= ( + X10 87 ) X16 )  ( <= ( + X16 93 ) X10 )  ( <= ( + Y10 81 ) Y16 )  ( <= ( + Y16 7 ) Y10 )  )
( or ( <= ( + X10 87 ) X17 )  ( <= ( + X17 7 ) X10 )  ( <= ( + Y10 81 ) Y17 )  ( <= ( + Y17 50 ) Y10 )  )
( or ( <= ( + X11 57 ) X12 )  ( <= ( + X12 36 ) X11 )  ( <= ( + Y11 45 ) Y12 )  ( <= ( + Y12 44 ) Y11 )  )
( or ( <= ( + X11 57 ) X13 )  ( <= ( + X13 96 ) X11 )  ( <= ( + Y11 45 ) Y13 )  ( <= ( + Y13 70 ) Y11 )  )
( or ( <= ( + X11 57 ) X14 )  ( <= ( + X14 57 ) X11 )  ( <= ( + Y11 45 ) Y14 )  ( <= ( + Y14 30 ) Y11 )  )
( or ( <= ( + X11 57 ) X15 )  ( <= ( + X15 59 ) X11 )  ( <= ( + Y11 45 ) Y15 )  ( <= ( + Y15 3 ) Y11 )  )
( or ( <= ( + X11 57 ) X16 )  ( <= ( + X16 93 ) X11 )  ( <= ( + Y11 45 ) Y16 )  ( <= ( + Y16 7 ) Y11 )  )
( or ( <= ( + X11 57 ) X17 )  ( <= ( + X17 7 ) X11 )  ( <= ( + Y11 45 ) Y17 )  ( <= ( + Y17 50 ) Y11 )  )
( or ( <= ( + X12 36 ) X13 )  ( <= ( + X13 96 ) X12 )  ( <= ( + Y12 44 ) Y13 )  ( <= ( + Y13 70 ) Y12 )  )
( or ( <= ( + X12 36 ) X14 )  ( <= ( + X14 57 ) X12 )  ( <= ( + Y12 44 ) Y14 )  ( <= ( + Y14 30 ) Y12 )  )
( or ( <= ( + X12 36 ) X15 )  ( <= ( + X15 59 ) X12 )  ( <= ( + Y12 44 ) Y15 )  ( <= ( + Y15 3 ) Y12 )  )
( or ( <= ( + X12 36 ) X16 )  ( <= ( + X16 93 ) X12 )  ( <= ( + Y12 44 ) Y16 )  ( <= ( + Y16 7 ) Y12 )  )
( or ( <= ( + X12 36 ) X17 )  ( <= ( + X17 7 ) X12 )  ( <= ( + Y12 44 ) Y17 )  ( <= ( + Y17 50 ) Y12 )  )
( or ( <= ( + X13 96 ) X14 )  ( <= ( + X14 57 ) X13 )  ( <= ( + Y13 70 ) Y14 )  ( <= ( + Y14 30 ) Y13 )  )
( or ( <= ( + X13 96 ) X15 )  ( <= ( + X15 59 ) X13 )  ( <= ( + Y13 70 ) Y15 )  ( <= ( + Y15 3 ) Y13 )  )
( or ( <= ( + X13 96 ) X16 )  ( <= ( + X16 93 ) X13 )  ( <= ( + Y13 70 ) Y16 )  ( <= ( + Y16 7 ) Y13 )  )
( or ( <= ( + X13 96 ) X17 )  ( <= ( + X17 7 ) X13 )  ( <= ( + Y13 70 ) Y17 )  ( <= ( + Y17 50 ) Y13 )  )
( or ( <= ( + X14 57 ) X15 )  ( <= ( + X15 59 ) X14 )  ( <= ( + Y14 30 ) Y15 )  ( <= ( + Y15 3 ) Y14 )  )
( or ( <= ( + X14 57 ) X16 )  ( <= ( + X16 93 ) X14 )  ( <= ( + Y14 30 ) Y16 )  ( <= ( + Y16 7 ) Y14 )  )
( or ( <= ( + X14 57 ) X17 )  ( <= ( + X17 7 ) X14 )  ( <= ( + Y14 30 ) Y17 )  ( <= ( + Y17 50 ) Y14 )  )
( or ( <= ( + X15 59 ) X16 )  ( <= ( + X16 93 ) X15 )  ( <= ( + Y15 3 ) Y16 )  ( <= ( + Y16 7 ) Y15 )  )
( or ( <= ( + X15 59 ) X17 )  ( <= ( + X17 7 ) X15 )  ( <= ( + Y15 3 ) Y17 )  ( <= ( + Y17 50 ) Y15 )  )
( or ( <= ( + X16 93 ) X17 )  ( <= ( + X17 7 ) X16 )  ( <= ( + Y16 7 ) Y17 )  ( <= ( + Y17 50 ) Y16 )  )
( >= X0 0)
( <= ( + X0 90) Z)
( >= Y0 0)
( <= ( + Y0 72 ) 100)
( >= X1 0)
( <= ( + X1 34) Z)
( >= Y1 0)
( <= ( + Y1 52 ) 100)
( >= X2 0)
( <= ( + X2 7) Z)
( >= Y2 0)
( <= ( + Y2 77 ) 100)
( >= X3 0)
( <= ( + X3 38) Z)
( >= Y3 0)
( <= ( + Y3 29 ) 100)
( >= X4 0)
( <= ( + X4 20) Z)
( >= Y4 0)
( <= ( + Y4 16 ) 100)
( >= X5 0)
( <= ( + X5 77) Z)
( >= Y5 0)
( <= ( + Y5 98 ) 100)
( >= X6 0)
( <= ( + X6 52) Z)
( >= Y6 0)
( <= ( + Y6 10 ) 100)
( >= X7 0)
( <= ( + X7 52) Z)
( >= Y7 0)
( <= ( + Y7 26 ) 100)
( >= X8 0)
( <= ( + X8 39) Z)
( >= Y8 0)
( <= ( + Y8 8 ) 100)
( >= X9 0)
( <= ( + X9 75) Z)
( >= Y9 0)
( <= ( + Y9 62 ) 100)
( >= X10 0)
( <= ( + X10 87) Z)
( >= Y10 0)
( <= ( + Y10 81 ) 100)
( >= X11 0)
( <= ( + X11 57) Z)
( >= Y11 0)
( <= ( + Y11 45 ) 100)
( >= X12 0)
( <= ( + X12 36) Z)
( >= Y12 0)
( <= ( + Y12 44 ) 100)
( >= X13 0)
( <= ( + X13 96) Z)
( >= Y13 0)
( <= ( + Y13 70 ) 100)
( >= X14 0)
( <= ( + X14 57) Z)
( >= Y14 0)
( <= ( + Y14 30 ) 100)
( >= X15 0)
( <= ( + X15 59) Z)
( >= Y15 0)
( <= ( + Y15 3 ) 100)
( >= X16 0)
( <= ( + X16 93) Z)
( >= Y16 0)
( <= ( + Y16 7 ) 100)
( >= X17 0)
( <= ( + X17 7) Z)
( >= Y17 0)
( <= ( + Y17 50 ) 100)
) )
)(=> $phi $goal))))